c description: Perfect Matching Principle on 
c generator: CNFgen (0.9.0)
c copyright: (C) 2012-2020 Massimo Lauria <massimo.lauria@uniroma1.it>
c url: https://massimolauria.net/cnfgen
c
p cnf 40 118
-1 -2 0
-1 -3 0
-1 -4 0
-1 -5 0
-1 -6 0
-2 -3 0
-2 -4 0
-2 -5 0
-2 -6 0
-3 -4 0
-3 -5 0
-3 -6 0
-4 -5 0
-4 -6 0
-5 -6 0
1 2 3 4 5 6 0
-7 -8 0
7 8 0
0
-9 -10 0
-9 -11 0
-10 -11 0
9 10 11 0
-12 -13 0
-12 -14 0
-12 -15 0
-13 -14 0
-13 -15 0
-14 -15 0
12 13 14 15 0
-9 -16 0
-9 -17 0
-9 -18 0
-16 -17 0
-16 -18 0
-17 -18 0
9 16 17 18 0
-10 -12 0
10 12 0
-1 -19 0
1 19 0
-2 -7 0
-2 -20 0
-7 -20 0
2 7 20 0
0
21 0
-22 -23 0
-22 -24 0
-23 -24 0
22 23 24 0
-19 -25 0
19 25 0
-3 -26 0
-3 -27 0
-26 -27 0
3 26 27 0
-28 -29 0
28 29 0
0
-4 -28 0
-4 -30 0
-4 -31 0
-28 -30 0
-28 -31 0
-30 -31 0
4 28 30 31 0
-20 -26 0
-20 -32 0
-26 -32 0
20 26 32 0
13 0
33 0
-5 -30 0
5 30 0
-14 -31 0
14 31 0
-11 -16 0
-11 -27 0
-11 -34 0
-16 -27 0
-16 -34 0
-27 -34 0
11 16 27 34 0
0
-8 -35 0
8 35 0
32 0
-22 -25 0
22 25 0
-17 -36 0
17 36 0
29 0
-37 -38 0
37 38 0
0
-23 -35 0
-23 -39 0
-35 -39 0
23 35 39 0
36 0
-24 -39 0
24 39 0
0
0
-37 -40 0
37 40 0
-15 -18 0
15 18 0
-34 -40 0
34 40 0
-6 -21 0
-6 -33 0
-6 -38 0
-21 -33 0
-21 -38 0
-33 -38 0
6 21 33 38 0